final_instances/raki1.cnf
p cnf 13 31
c 2 a
c 3 b
c 4 f
c 5 e
c 6 d
c 7 c
c 8 g
2 3 0
-2 -3 0
3 2 0
-3 -2 0
4 5 0
-4 -5 0
5 4 0
-5 -4 0
9 -4 0
-9 4 0
10 -5 0
-10 5 0
11 -2 -6 0
-11 2 0
-11 6 0
12 -2 -7 0
-12 2 0
-12 7 0
8 -6 0
-8 6 0
13 -8 0
-13 8 0
-1 0
-1 0
-6 9 12 13 0
6 -9 0
6 -12 0
6 -13 0
-7 10 11 0
7 -10 0
7 -11 0
