final_instances/raki1.lp
a :- not b.
b :- not a.
c :- d, a.
d :- c, a.
e :- not f.
f :- not e.
c :- e.
d :- f.
d :- g.
g :- d.